language Essence 1.3

letting bot_end be [1332, 1331, 1329, 1342, 1246, 1330, 1195, 14, 44, 1318, 5, 28, 181, 169, 17, 63, 45, 0; int(1..18)]
letting bot_start be
        [276, 174, 296, 297, 220, 333, 84, 1119, 1261, 19, 1330, 1035, 1305, 1323, 1216, 1300, 1143, 1019; int(1..18)]
letting buffer_col be 2
letting buffer_row be 2
letting corridor_size be 3
letting n_shelves_col be 2
letting n_shelves_row be 23
letting shelf_col_size be 2
letting shelf_row_size be 1
